proyfinal/src/viki/013/experimentInOfficeAgust.take6.output/84eb12ff-6390-48ee-bc25-4f6d75351896.als.dat
{'cnf.clauses': '118081',
 'cnf.totvars': '69608',
 'conflict literals': '10235',
 'conflicts': '825',
 'decisions': '10554',
 'memused.mb': '16.53',
 'outcome': 'UNSAT',
 'propagations': '1036454',
 'restarts': '7',
 'solver.msecs': 73,
 'task.msecs': 123}
